letting n =  10
letting blocks =  [[1, 5], [1, 6], [1, 10], [2, 4], [2, 9], [2, 10], [3, 1], [3, 3], [3, 4], [3, 9], [4, 3], [4, 6], [5, 4], [5, 10], [6, 4], [6, 5], [6, 8], [7, 1], [7, 2], [7, 5], [7, 7], [8, 4], [8, 9], [9, 2], [9, 6], [9, 9], [9, 10], [10, 1], [10, 3], [10, 4], [10, 9], [10, 10]]
